\ This file has been generated by DOcplex
\ ENCODING=ISO-8859-1
\Problem name: Orandom13942_6.lp

Minimize
 obj: - 12.000001005578 x0 - 6.000000502789 x1 - 3.000000251395 x2
      - 32.000001005578 x3 - 16.000000502789 x4 - 8.000000251395 x5 + [
      48.000000574616 x0^2 + 48.000000574616 x0*x1 + 24.000000287308 x0*x2
      + 32.000001149232 x0*x3 + 16.000000574616 x0*x4 + 8.000000287308 x0*x5
      + 12.000000143654 x1^2 + 12.000000143654 x1*x2 + 16.000000574616 x1*x3
      + 8.000000287308 x1*x4 + 4.000000143654 x1*x5 + 3.000000035914 x2^2
      + 8.000000287308 x2*x3 + 4.000000143654 x2*x4 + 2.000000071827 x2*x5
      + 16.000000574616 x3^2 + 16.000000574616 x3*x4 + 8.000000287308 x3*x5
      + 4.000000143654 x4^2 + 4.000000143654 x4*x5 + 1.000000035914 x5^2 ]/2 +
      24.500000879881
Subject To

Bounds
 0 <= x0 <= 1
 0 <= x1 <= 1
 0 <= x2 <= 1
 0 <= x3 <= 1
 0 <= x4 <= 1
 0 <= x5 <= 1

Binaries
 x0 x1 x2 x3 x4 x5
End
